(set-logic LIA) (declare-var y!23 Int) (declare-var xPostExec Int) (declare-var y!M0 Int) (declare-var x!M0 Int) (declare-var z!0 Int) (declare-var x!16 Int) (declare-var zPostExec Int) (declare-var J8 Bool) (declare-var yPostExec Int) (declare-var J4 Bool) (synth-fun rankingFunction!0 ((arg0 Int) (arg1 Int) (arg2 Int)) Int ((NTInt Int) (NTbool Bool)) ((NTInt Int (arg0 arg1 arg2 0 1 (- NTInt) (+ NTInt NTInt) (- NTInt NTInt) (ite NTbool NTInt NTInt))) (NTbool Bool ((not NTbool) (and NTbool NTbool) (or NTbool NTbool) (ite NTbool NTbool NTbool) (= NTInt NTInt) (< NTInt NTInt) (> NTInt NTInt))))) (constraint (=> (and (and (and (and (and (and (and (= J4 (not (<= 0 x!M0))) (= J8 (not (<= 0 (+ x!M0 y!M0))))) (= x!16 (+ x!M0 (+ y!M0 z!0)))) (= y!23 (+ (- 1) (* (- 1) z!0)))) (=> (and (not J4) (not J8)) (= xPostExec x!16))) (=> (and (not J4) (not J8)) (= yPostExec y!23))) (and (not J4) (not J8))) (= z!0 zPostExec)) (and (> (rankingFunction!0 x!M0 y!M0 z!0) (rankingFunction!0 xPostExec yPostExec zPostExec)) (>= (rankingFunction!0 x!M0 y!M0 z!0) 0)))) (check-synth)